50 1390
1440 60 320 60 360 1120 600 60 1280 600 800 420 60 60 480 160 180 540 240 60 800 300 600 1280 640 360 300 1440 640 800 640 420 600 640 960 420 640 540 960 120 160 1440 640 480 600 1440 240 600 1600 600 
1251 69 278 69 414 973 690 69 1112 690 695 483 69 69 417 139 207 621 276 69 695 345 690 1112 556 414 345 1251 556 695 556 483 690 556 834 483 556 621 834 138 139 1251 556 552 690 1251 276 690 1390 690 
